
Gurobi 7.5.2 (linux64, Python) logging started Fri Jan 18 12:13:51 2019

Academic license - for non-commercial use only
Optimize a model with 31 rows, 40 columns and 166 nonzeros
Variable types: 0 continuous, 40 integer (40 binary)
Coefficient statistics:
  Matrix range     [1e+00, 1e+00]
  Objective range  [1e+00, 1e+00]
  Bounds range     [1e+00, 1e+00]
  RHS range        [1e+00, 1e+00]
Presolve time: 0.00s

Explored 0 nodes (0 simplex iterations) in 0.01 seconds
Thread count was 1 (of 4 available processors)

Solution count 0

Model is infeasible
Best objective -, best bound -, gap -
Optimize a model with 31 rows, 40 columns and 166 nonzeros
Variable types: 0 continuous, 40 integer (40 binary)
Coefficient statistics:
  Matrix range     [1e+00, 1e+00]
  Objective range  [1e+00, 1e+00]
  Bounds range     [1e+00, 1e+00]
  RHS range        [1e+00, 1e+00]
Presolve time: 0.00s

Explored 0 nodes (0 simplex iterations) in 0.01 seconds
Thread count was 1 (of 4 available processors)

Solution count 0

Model is infeasible
Best objective -, best bound -, gap -
Optimize a model with 31 rows, 40 columns and 166 nonzeros
Variable types: 0 continuous, 40 integer (40 binary)
Coefficient statistics:
  Matrix range     [1e+00, 1e+00]
  Objective range  [1e+00, 1e+00]
  Bounds range     [1e+00, 1e+00]
  RHS range        [1e+00, 1e+00]
Presolve time: 0.00s

Explored 0 nodes (0 simplex iterations) in 0.02 seconds
Thread count was 1 (of 4 available processors)

Solution count 0

Model is infeasible
Best objective -, best bound -, gap -
Optimize a model with 31 rows, 321 columns and 1009 nonzeros
Variable types: 0 continuous, 321 integer (321 binary)
Coefficient statistics:
  Matrix range     [1e+00, 1e+00]
  Objective range  [1e+00, 1e+00]
  Bounds range     [1e+00, 1e+00]
  RHS range        [1e+00, 1e+00]
Presolve time: 0.00s

Explored 0 nodes (0 simplex iterations) in 0.03 seconds
Thread count was 1 (of 4 available processors)

Solution count 0

Model is infeasible
Best objective -, best bound -, gap -
Optimize a model with 31 rows, 2147 columns and 4661 nonzeros
Variable types: 0 continuous, 2147 integer (2147 binary)
Coefficient statistics:
  Matrix range     [1e+00, 1e+00]
  Objective range  [1e+00, 1e+00]
  Bounds range     [1e+00, 1e+00]
  RHS range        [1e+00, 1e+00]
Presolve time: 0.00s

Explored 0 nodes (0 simplex iterations) in 0.03 seconds
Thread count was 1 (of 4 available processors)

Solution count 0

Model is infeasible
Best objective -, best bound -, gap -
Optimize a model with 31 rows, 7187 columns and 9701 nonzeros
Variable types: 0 continuous, 7187 integer (7187 binary)
Coefficient statistics:
  Matrix range     [1e+00, 1e+00]
  Objective range  [1e+00, 1e+00]
  Bounds range     [1e+00, 1e+00]
  RHS range        [1e+00, 1e+00]
Presolve time: 0.00s

Explored 0 nodes (0 simplex iterations) in 0.01 seconds
Thread count was 1 (of 4 available processors)

Solution count 0

Model is infeasible
Best objective -, best bound -, gap -
Optimize a model with 21 rows, 7187 columns and 9701 nonzeros
Variable types: 0 continuous, 7187 integer (7187 binary)
Coefficient statistics:
  Matrix range     [1e+00, 1e+00]
  Objective range  [1e+00, 1e+00]
  Bounds range     [1e+00, 1e+00]
  RHS range        [1e+00, 1e+00]
Found heuristic solution: objective 17.0000000
Presolve removed 0 rows and 7115 columns
Presolve time: 0.01s
Presolved: 21 rows, 72 columns, 248 nonzeros
Found heuristic solution: objective 9.0000000
Variable types: 0 continuous, 72 integer (72 binary)

Root relaxation: objective 7.500000e+00, 36 iterations, 0.00 seconds

    Nodes    |    Current Node    |     Objective Bounds      |     Work
 Expl Unexpl |  Obj  Depth IntInf | Incumbent    BestBd   Gap | It/Node Time

     0     0    7.50000    0    5    9.00000    7.50000  16.7%     -    0s
H    0     0                       8.0000000    7.50000  6.25%     -    0s

Explored 1 nodes (50 simplex iterations) in 0.04 seconds
Thread count was 4 (of 4 available processors)

Solution count 2: 8 9 

Optimal solution found (tolerance 1.00e-04)
Best objective 8.000000000000e+00, best bound 8.000000000000e+00, gap 0.0000%
Optimize a model with 21 rows, 7187 columns and 9701 nonzeros
Variable types: 0 continuous, 7187 integer (7187 binary)
Coefficient statistics:
  Matrix range     [1e+00, 1e+00]
  Objective range  [1e+00, 1e+00]
  Bounds range     [1e+00, 1e+00]
  RHS range        [1e+00, 1e+00]
Found heuristic solution: objective 17.0000000
Presolve removed 0 rows and 7115 columns
Presolve time: 0.01s
Presolved: 21 rows, 72 columns, 248 nonzeros
Found heuristic solution: objective 9.0000000
Variable types: 0 continuous, 72 integer (72 binary)

Root relaxation: objective 7.500000e+00, 36 iterations, 0.00 seconds

    Nodes    |    Current Node    |     Objective Bounds      |     Work
 Expl Unexpl |  Obj  Depth IntInf | Incumbent    BestBd   Gap | It/Node Time

     0     0    7.50000    0    5    9.00000    7.50000  16.7%     -    0s
H    0     0                       8.0000000    7.50000  6.25%     -    0s

Explored 1 nodes (50 simplex iterations) in 0.03 seconds
Thread count was 4 (of 4 available processors)

Solution count 2: 8 9 

Optimal solution found (tolerance 1.00e-04)
Best objective 8.000000000000e+00, best bound 8.000000000000e+00, gap 0.0000%
Optimize a model with 21 rows, 40 columns and 166 nonzeros
Variable types: 0 continuous, 40 integer (40 binary)
Coefficient statistics:
  Matrix range     [1e+00, 1e+00]
  Objective range  [1e+00, 1e+00]
  Bounds range     [1e+00, 1e+00]
  RHS range        [1e+00, 1e+00]
Found heuristic solution: objective 10.0000000
Presolve removed 4 rows and 13 columns
Presolve time: 0.00s
Presolved: 17 rows, 27 columns, 66 nonzeros
Variable types: 0 continuous, 27 integer (27 binary)

Root relaxation: objective 8.000000e+00, 23 iterations, 0.00 seconds

    Nodes    |    Current Node    |     Objective Bounds      |     Work
 Expl Unexpl |  Obj  Depth IntInf | Incumbent    BestBd   Gap | It/Node Time

*    0     0               0       8.0000000    8.00000  0.00%     -    0s

Explored 0 nodes (23 simplex iterations) in 0.06 seconds
Thread count was 4 (of 4 available processors)

Solution count 2: 8 10 

Optimal solution found (tolerance 1.00e-04)
Best objective 8.000000000000e+00, best bound 8.000000000000e+00, gap 0.0000%
Optimize a model with 21 rows, 6 columns and 30 nonzeros
Variable types: 0 continuous, 6 integer (6 binary)
Coefficient statistics:
  Matrix range     [1e+00, 1e+00]
  Objective range  [1e+00, 1e+00]
  Bounds range     [1e+00, 1e+00]
  RHS range        [1e+00, 1e+00]
Presolve time: 0.00s

Explored 0 nodes (0 simplex iterations) in 0.01 seconds
Thread count was 1 (of 4 available processors)

Solution count 0

Model is infeasible
Best objective -, best bound -, gap -
Optimize a model with 21 rows, 40 columns and 166 nonzeros
Variable types: 0 continuous, 40 integer (40 binary)
Coefficient statistics:
  Matrix range     [1e+00, 1e+00]
  Objective range  [1e+00, 1e+00]
  Bounds range     [1e+00, 1e+00]
  RHS range        [1e+00, 1e+00]
Found heuristic solution: objective 10.0000000
Presolve removed 4 rows and 13 columns
Presolve time: 0.00s
Presolved: 17 rows, 27 columns, 66 nonzeros
Variable types: 0 continuous, 27 integer (27 binary)

Root relaxation: objective 8.000000e+00, 23 iterations, 0.00 seconds

    Nodes    |    Current Node    |     Objective Bounds      |     Work
 Expl Unexpl |  Obj  Depth IntInf | Incumbent    BestBd   Gap | It/Node Time

*    0     0               0       8.0000000    8.00000  0.00%     -    0s

Explored 0 nodes (23 simplex iterations) in 0.02 seconds
Thread count was 4 (of 4 available processors)

Solution count 2: 8 10 

Optimal solution found (tolerance 1.00e-04)
Best objective 8.000000000000e+00, best bound 8.000000000000e+00, gap 0.0000%
Optimize a model with 21 rows, 0 columns and 0 nonzeros
Coefficient statistics:
  Matrix range     [0e+00, 0e+00]
  Objective range  [0e+00, 0e+00]
  Bounds range     [0e+00, 0e+00]
  RHS range        [1e+00, 1e+00]
Presolve time: 0.01s

Solved in 0 iterations and 0.01 seconds
Infeasible model
Optimize a model with 25 rows, 0 columns and 0 nonzeros
Coefficient statistics:
  Matrix range     [0e+00, 0e+00]
  Objective range  [0e+00, 0e+00]
  Bounds range     [0e+00, 0e+00]
  RHS range        [1e+00, 1e+00]
Presolve time: 0.01s

Solved in 0 iterations and 0.02 seconds
Infeasible model
Optimize a model with 25 rows, 13 columns and 39 nonzeros
Variable types: 0 continuous, 13 integer (13 binary)
Coefficient statistics:
  Matrix range     [1e+00, 1e+00]
  Objective range  [1e+00, 1e+00]
  Bounds range     [1e+00, 1e+00]
  RHS range        [1e+00, 1e+00]
Presolve time: 0.00s

Explored 0 nodes (0 simplex iterations) in 0.01 seconds
Thread count was 1 (of 4 available processors)

Solution count 0

Model is infeasible
Best objective -, best bound -, gap -
Optimize a model with 25 rows, 182 columns and 377 nonzeros
Variable types: 0 continuous, 182 integer (182 binary)
Coefficient statistics:
  Matrix range     [1e+00, 1e+00]
  Objective range  [1e+00, 1e+00]
  Bounds range     [1e+00, 1e+00]
  RHS range        [1e+00, 1e+00]
Found heuristic solution: objective 17.0000000
Presolve removed 14 rows and 167 columns
Presolve time: 0.00s
Presolved: 11 rows, 15 columns, 30 nonzeros
Found heuristic solution: objective 13.0000000
Variable types: 0 continuous, 15 integer (15 binary)

Root relaxation: cutoff, 11 iterations, 0.00 seconds

    Nodes    |    Current Node    |     Objective Bounds      |     Work
 Expl Unexpl |  Obj  Depth IntInf | Incumbent    BestBd   Gap | It/Node Time

     0     0     cutoff    0        13.00000   13.00000  0.00%     -    0s

Explored 0 nodes (11 simplex iterations) in 0.03 seconds
Thread count was 4 (of 4 available processors)

Solution count 1: 13 

Optimal solution found (tolerance 1.00e-04)
Best objective 1.300000000000e+01, best bound 1.300000000000e+01, gap 0.0000%
Optimize a model with 399 rows, 19640 columns and 172516 nonzeros
Variable types: 0 continuous, 19640 integer (19640 binary)
Coefficient statistics:
  Matrix range     [1e+00, 1e+00]
  Objective range  [1e+00, 1e+00]
  Bounds range     [1e+00, 1e+00]
  RHS range        [1e+00, 1e+00]
Found heuristic solution: objective 118.0000000
Presolve removed 0 rows and 11058 columns
Presolve time: 0.43s
Presolved: 399 rows, 8582 columns, 112722 nonzeros
Found heuristic solution: objective 25.0000000
Variable types: 0 continuous, 8582 integer (8582 binary)

Root relaxation: objective 7.500000e+00, 105 iterations, 0.01 seconds

    Nodes    |    Current Node    |     Objective Bounds      |     Work
 Expl Unexpl |  Obj  Depth IntInf | Incumbent    BestBd   Gap | It/Node Time

     0     0    7.50000    0    3   25.00000    7.50000  70.0%     -    0s
H    0     0                       8.0000000    7.50000  6.25%     -    0s

Explored 1 nodes (134 simplex iterations) in 0.54 seconds
Thread count was 4 (of 4 available processors)

Solution count 3: 8 25 96 

Optimal solution found (tolerance 1.00e-04)
Best objective 8.000000000000e+00, best bound 8.000000000000e+00, gap 0.0000%
